c File: data_files/evolved_graphs/g3642.col
c
c Auto generated graph
c
p edge 100 2133
e 1 3
e 1 5
e 1 7
e 1 8
e 1 9
e 1 11
e 1 12
e 1 13
e 1 14
e 1 15
e 1 16
e 1 19
e 1 20
e 1 23
e 1 24
e 1 25
e 1 26
e 1 27
e 1 31
e 1 33
e 1 34
e 1 35
e 1 36
e 1 38
e 1 39
e 1 42
e 1 43
e 1 44
e 1 45
e 1 47
e 1 48
e 1 49
e 1 50
e 1 51
e 1 53
e 1 55
e 1 56
e 1 57
e 1 59
e 1 60
e 1 62
e 1 64
e 1 65
e 1 68
e 1 69
e 1 70
e 1 71
e 1 72
e 1 74
e 1 84
e 1 89
e 1 91
e 1 93
e 1 96
e 1 97
e 1 100
e 2 3
e 2 4
e 2 7
e 2 8
e 2 9
e 2 10
e 2 11
e 2 15
e 2 17
e 2 18
e 2 20
e 2 21
e 2 23
e 2 26
e 2 27
e 2 28
e 2 33
e 2 34
e 2 35
e 2 37
e 2 40
e 2 41
e 2 43
e 2 45
e 2 48
e 2 49
e 2 50
e 2 51
e 2 52
e 2 56
e 2 58
e 2 59
e 2 60
e 2 64
e 2 65
e 2 66
e 2 67
e 2 69
e 2 70
e 2 71
e 2 73
e 2 74
e 2 79
e 2 92
e 2 94
e 2 96
e 2 97
e 2 100
e 3 4
e 3 5
e 3 6
e 3 7
e 3 8
e 3 9
e 3 10
e 3 13
e 3 14
e 3 15
e 3 18
e 3 20
e 3 23
e 3 29
e 3 32
e 3 34
e 3 36
e 3 37
e 3 38
e 3 39
e 3 40
e 3 41
e 3 43
e 3 44
e 3 48
e 3 49
e 3 52
e 3 54
e 3 55
e 3 56
e 3 57
e 3 62
e 3 63
e 3 65
e 3 66
e 3 67
e 3 68
e 3 71
e 3 74
e 3 88
e 3 89
e 3 90
e 3 91
e 3 96
e 3 97
e 3 99
e 3 100
e 4 7
e 4 10
e 4 11
e 4 19
e 4 21
e 4 22
e 4 23
e 4 25
e 4 26
e 4 27
e 4 30
e 4 31
e 4 33
e 4 35
e 4 36
e 4 38
e 4 40
e 4 41
e 4 42
e 4 45
e 4 47
e 4 49
e 4 51
e 4 52
e 4 53
e 4 54
e 4 55
e 4 56
e 4 57
e 4 58
e 4 60
e 4 61
e 4 62
e 4 63
e 4 64
e 4 66
e 4 68
e 4 70
e 4 71
e 4 73
e 4 74
e 4 79
e 4 81
e 4 87
e 4 88
e 4 89
e 4 92
e 4 93
e 4 95
e 4 96
e 4 100
e 5 6
e 5 9
e 5 11
e 5 13
e 5 14
e 5 15
e 5 17
e 5 18
e 5 23
e 5 26
e 5 29
e 5 31
e 5 32
e 5 33
e 5 35
e 5 38
e 5 40
e 5 43
e 5 44
e 5 45
e 5 46
e 5 50
e 5 51
e 5 54
e 5 55
e 5 59
e 5 61
e 5 62
e 5 66
e 5 67
e 5 68
e 5 69
e 5 70
e 5 72
e 5 78
e 5 88
e 5 91
e 5 92
e 5 94
e 5 95
e 5 97
e 5 99
e 5 100
e 6 7
e 6 8
e 6 12
e 6 16
e 6 17
e 6 20
e 6 21
e 6 22
e 6 24
e 6 25
e 6 26
e 6 27
e 6 28
e 6 33
e 6 36
e 6 37
e 6 38
e 6 40
e 6 41
e 6 43
e 6 47
e 6 48
e 6 49
e 6 50
e 6 51
e 6 52
e 6 53
e 6 54
e 6 55
e 6 56
e 6 57
e 6 58
e 6 59
e 6 61
e 6 63
e 6 64
e 6 65
e 6 66
e 6 67
e 6 70
e 6 71
e 6 73
e 6 74
e 6 86
e 6 91
e 6 92
e 6 93
e 6 96
e 6 98
e 6 99
e 6 100
e 7 8
e 7 9
e 7 15
e 7 16
e 7 17
e 7 20
e 7 21
e 7 24
e 7 25
e 7 28
e 7 31
e 7 32
e 7 35
e 7 36
e 7 37
e 7 38
e 7 40
e 7 42
e 7 43
e 7 45
e 7 47
e 7 48
e 7 49
e 7 51
e 7 53
e 7 54
e 7 57
e 7 59
e 7 60
e 7 70
e 7 71
e 7 72
e 7 74
e 7 89
e 7 92
e 7 96
e 7 99
e 7 100
e 8 9
e 8 11
e 8 12
e 8 14
e 8 16
e 8 17
e 8 22
e 8 23
e 8 25
e 8 26
e 8 27
e 8 28
e 8 29
e 8 31
e 8 32
e 8 33
e 8 34
e 8 36
e 8 38
e 8 39
e 8 40
e 8 41
e 8 44
e 8 45
e 8 47
e 8 48
e 8 49
e 8 50
e 8 55
e 8 57
e 8 60
e 8 62
e 8 63
e 8 64
e 8 66
e 8 67
e 8 68
e 8 70
e 8 74
e 8 95
e 8 97
e 8 99
e 8 100
e 9 10
e 9 12
e 9 13
e 9 14
e 9 16
e 9 17
e 9 20
e 9 23
e 9 26
e 9 30
e 9 31
e 9 32
e 9 33
e 9 34
e 9 35
e 9 40
e 9 43
e 9 44
e 9 45
e 9 46
e 9 47
e 9 50
e 9 51
e 9 52
e 9 53
e 9 55
e 9 58
e 9 59
e 9 61
e 9 62
e 9 63
e 9 64
e 9 65
e 9 67
e 9 68
e 9 69
e 9 70
e 9 72
e 9 73
e 9 74
e 9 88
e 9 93
e 9 96
e 9 98
e 9 100
e 10 11
e 10 13
e 10 15
e 10 16
e 10 17
e 10 19
e 10 21
e 10 22
e 10 27
e 10 28
e 10 30
e 10 31
e 10 32
e 10 35
e 10 37
e 10 38
e 10 39
e 10 40
e 10 42
e 10 44
e 10 45
e 10 49
e 10 50
e 10 51
e 10 57
e 10 60
e 10 61
e 10 62
e 10 63
e 10 64
e 10 65
e 10 69
e 10 72
e 10 73
e 10 74
e 10 81
e 10 96
e 10 97
e 10 100
e 11 12
e 11 14
e 11 15
e 11 17
e 11 19
e 11 20
e 11 22
e 11 24
e 11 30
e 11 32
e 11 36
e 11 37
e 11 38
e 11 39
e 11 41
e 11 42
e 11 45
e 11 46
e 11 47
e 11 48
e 11 49
e 11 52
e 11 53
e 11 60
e 11 62
e 11 64
e 11 66
e 11 67
e 11 71
e 11 72
e 11 73
e 11 75
e 11 90
e 11 95
e 11 97
e 11 98
e 11 99
e 11 100
e 12 13
e 12 14
e 12 18
e 12 20
e 12 21
e 12 23
e 12 24
e 12 26
e 12 27
e 12 28
e 12 30
e 12 31
e 12 32
e 12 33
e 12 34
e 12 36
e 12 37
e 12 39
e 12 43
e 12 44
e 12 45
e 12 46
e 12 48
e 12 49
e 12 50
e 12 51
e 12 52
e 12 53
e 12 54
e 12 56
e 12 57
e 12 59
e 12 60
e 12 62
e 12 64
e 12 65
e 12 66
e 12 71
e 12 72
e 12 74
e 12 75
e 12 90
e 12 98
e 12 99
e 13 14
e 13 16
e 13 18
e 13 19
e 13 20
e 13 21
e 13 23
e 13 27
e 13 33
e 13 34
e 13 36
e 13 37
e 13 38
e 13 42
e 13 43
e 13 45
e 13 46
e 13 47
e 13 50
e 13 52
e 13 54
e 13 55
e 13 56
e 13 57
e 13 60
e 13 62
e 13 65
e 13 66
e 13 67
e 13 68
e 13 71
e 13 72
e 13 74
e 13 89
e 13 90
e 13 93
e 13 95
e 13 96
e 13 97
e 13 98
e 13 100
e 14 16
e 14 18
e 14 19
e 14 20
e 14 21
e 14 25
e 14 27
e 14 28
e 14 30
e 14 31
e 14 33
e 14 36
e 14 37
e 14 38
e 14 39
e 14 40
e 14 41
e 14 42
e 14 43
e 14 44
e 14 46
e 14 48
e 14 49
e 14 57
e 14 58
e 14 59
e 14 60
e 14 65
e 14 66
e 14 71
e 14 72
e 14 73
e 14 74
e 14 87
e 14 93
e 14 94
e 14 95
e 14 96
e 14 97
e 14 98
e 14 99
e 15 16
e 15 18
e 15 22
e 15 23
e 15 24
e 15 25
e 15 26
e 15 29
e 15 30
e 15 31
e 15 33
e 15 36
e 15 37
e 15 41
e 15 42
e 15 43
e 15 48
e 15 49
e 15 50
e 15 51
e 15 53
e 15 55
e 15 60
e 15 61
e 15 62
e 15 63
e 15 65
e 15 66
e 15 67
e 15 68
e 15 69
e 15 71
e 15 72
e 15 73
e 15 74
e 15 84
e 15 95
e 15 96
e 15 97
e 15 98
e 15 99
e 15 100
e 16 17
e 16 19
e 16 21
e 16 22
e 16 24
e 16 25
e 16 26
e 16 29
e 16 30
e 16 32
e 16 36
e 16 37
e 16 38
e 16 41
e 16 46
e 16 47
e 16 48
e 16 50
e 16 51
e 16 53
e 16 54
e 16 55
e 16 56
e 16 58
e 16 62
e 16 63
e 16 65
e 16 69
e 16 71
e 16 72
e 16 73
e 16 88
e 16 97
e 16 98
e 16 99
e 16 100
e 17 20
e 17 21
e 17 23
e 17 24
e 17 26
e 17 28
e 17 29
e 17 30
e 17 31
e 17 33
e 17 36
e 17 38
e 17 39
e 17 40
e 17 41
e 17 42
e 17 44
e 17 45
e 17 47
e 17 48
e 17 50
e 17 51
e 17 52
e 17 54
e 17 56
e 17 57
e 17 59
e 17 61
e 17 62
e 17 65
e 17 69
e 17 71
e 17 73
e 17 77
e 17 85
e 17 90
e 17 96
e 17 97
e 17 100
e 18 19
e 18 20
e 18 21
e 18 24
e 18 25
e 18 26
e 18 28
e 18 33
e 18 36
e 18 39
e 18 41
e 18 42
e 18 43
e 18 44
e 18 45
e 18 46
e 18 47
e 18 48
e 18 52
e 18 53
e 18 54
e 18 57
e 18 58
e 18 61
e 18 62
e 18 64
e 18 67
e 18 68
e 18 69
e 18 87
e 18 91
e 18 93
e 18 94
e 18 96
e 18 99
e 18 100
e 19 20
e 19 21
e 19 23
e 19 24
e 19 28
e 19 30
e 19 31
e 19 33
e 19 34
e 19 35
e 19 39
e 19 40
e 19 41
e 19 42
e 19 44
e 19 45
e 19 48
e 19 49
e 19 50
e 19 51
e 19 52
e 19 54
e 19 55
e 19 58
e 19 59
e 19 60
e 19 61
e 19 64
e 19 65
e 19 66
e 19 68
e 19 69
e 19 70
e 19 72
e 19 73
e 19 74
e 19 90
e 19 93
e 19 94
e 19 95
e 19 96
e 19 98
e 19 99
e 19 100
e 20 21
e 20 22
e 20 25
e 20 27
e 20 28
e 20 30
e 20 32
e 20 33
e 20 34
e 20 35
e 20 36
e 20 37
e 20 38
e 20 39
e 20 42
e 20 43
e 20 44
e 20 45
e 20 48
e 20 49
e 20 50
e 20 53
e 20 58
e 20 59
e 20 60
e 20 62
e 20 63
e 20 64
e 20 66
e 20 68
e 20 70
e 20 72
e 20 74
e 20 89
e 20 93
e 20 94
e 20 95
e 20 98
e 20 99
e 20 100
e 21 22
e 21 24
e 21 27
e 21 28
e 21 32
e 21 35
e 21 36
e 21 37
e 21 38
e 21 41
e 21 43
e 21 44
e 21 45
e 21 47
e 21 49
e 21 50
e 21 53
e 21 54
e 21 55
e 21 56
e 21 58
e 21 60
e 21 61
e 21 62
e 21 65
e 21 67
e 21 69
e 21 70
e 21 72
e 21 74
e 21 89
e 21 91
e 21 92
e 21 93
e 21 96
e 21 98
e 21 99
e 21 100
e 22 26
e 22 30
e 22 32
e 22 33
e 22 34
e 22 36
e 22 37
e 22 39
e 22 40
e 22 41
e 22 45
e 22 46
e 22 47
e 22 50
e 22 54
e 22 55
e 22 56
e 22 58
e 22 61
e 22 64
e 22 65
e 22 66
e 22 67
e 22 69
e 22 71
e 22 73
e 22 88
e 22 90
e 22 91
e 22 94
e 22 95
e 22 96
e 22 97
e 22 99
e 23 25
e 23 26
e 23 28
e 23 30
e 23 32
e 23 34
e 23 36
e 23 37
e 23 38
e 23 40
e 23 45
e 23 46
e 23 48
e 23 49
e 23 50
e 23 52
e 23 53
e 23 54
e 23 55
e 23 58
e 23 60
e 23 62
e 23 66
e 23 68
e 23 69
e 23 70
e 23 71
e 23 74
e 23 86
e 23 94
e 23 95
e 23 97
e 23 98
e 23 99
e 23 100
e 24 26
e 24 28
e 24 29
e 24 30
e 24 32
e 24 33
e 24 38
e 24 39
e 24 44
e 24 45
e 24 47
e 24 48
e 24 50
e 24 52
e 24 53
e 24 55
e 24 56
e 24 57
e 24 58
e 24 60
e 24 61
e 24 62
e 24 64
e 24 65
e 24 70
e 24 71
e 24 88
e 24 89
e 24 90
e 24 95
e 24 97
e 24 99
e 25 27
e 25 29
e 25 30
e 25 31
e 25 35
e 25 36
e 25 38
e 25 39
e 25 41
e 25 42
e 25 44
e 25 45
e 25 46
e 25 47
e 25 49
e 25 52
e 25 53
e 25 54
e 25 57
e 25 58
e 25 60
e 25 65
e 25 68
e 25 69
e 25 70
e 25 72
e 25 74
e 25 89
e 25 94
e 26 27
e 26 28
e 26 29
e 26 34
e 26 35
e 26 36
e 26 38
e 26 39
e 26 40
e 26 41
e 26 43
e 26 45
e 26 48
e 26 49
e 26 50
e 26 52
e 26 54
e 26 55
e 26 56
e 26 57
e 26 58
e 26 59
e 26 60
e 26 61
e 26 62
e 26 68
e 26 69
e 26 71
e 26 74
e 26 88
e 26 89
e 26 93
e 26 96
e 26 97
e 26 98
e 27 29
e 27 31
e 27 32
e 27 34
e 27 35
e 27 36
e 27 37
e 27 38
e 27 39
e 27 41
e 27 42
e 27 43
e 27 44
e 27 45
e 27 48
e 27 55
e 27 56
e 27 57
e 27 58
e 27 62
e 27 63
e 27 64
e 27 65
e 27 66
e 27 69
e 27 73
e 27 92
e 27 96
e 27 97
e 27 100
e 28 29
e 28 30
e 28 31
e 28 33
e 28 34
e 28 35
e 28 36
e 28 37
e 28 38
e 28 39
e 28 40
e 28 41
e 28 42
e 28 43
e 28 44
e 28 46
e 28 48
e 28 49
e 28 50
e 28 52
e 28 53
e 28 54
e 28 55
e 28 56
e 28 57
e 28 58
e 28 61
e 28 63
e 28 64
e 28 65
e 28 66
e 28 67
e 28 71
e 28 72
e 28 74
e 28 85
e 28 89
e 28 91
e 28 95
e 28 96
e 28 97
e 28 100
e 29 30
e 29 31
e 29 34
e 29 35
e 29 36
e 29 37
e 29 42
e 29 44
e 29 46
e 29 47
e 29 50
e 29 51
e 29 52
e 29 53
e 29 54
e 29 55
e 29 56
e 29 58
e 29 59
e 29 61
e 29 62
e 29 63
e 29 66
e 29 70
e 29 71
e 29 73
e 29 88
e 29 90
e 29 94
e 29 95
e 29 96
e 29 97
e 29 98
e 30 34
e 30 35
e 30 36
e 30 37
e 30 39
e 30 40
e 30 45
e 30 46
e 30 48
e 30 50
e 30 53
e 30 54
e 30 57
e 30 59
e 30 60
e 30 62
e 30 63
e 30 64
e 30 65
e 30 66
e 30 68
e 30 70
e 30 73
e 30 74
e 30 87
e 30 88
e 30 92
e 30 96
e 30 98
e 30 99
e 31 33
e 31 34
e 31 35
e 31 37
e 31 38
e 31 39
e 31 40
e 31 42
e 31 47
e 31 48
e 31 52
e 31 54
e 31 55
e 31 56
e 31 57
e 31 59
e 31 61
e 31 63
e 31 67
e 31 68
e 31 69
e 31 70
e 31 72
e 31 73
e 31 81
e 31 89
e 31 90
e 31 94
e 31 95
e 31 97
e 32 33
e 32 35
e 32 36
e 32 39
e 32 40
e 32 43
e 32 45
e 32 46
e 32 47
e 32 50
e 32 51
e 32 52
e 32 54
e 32 55
e 32 57
e 32 59
e 32 61
e 32 64
e 32 65
e 32 66
e 32 67
e 32 69
e 32 71
e 32 74
e 32 87
e 32 91
e 32 93
e 32 100
e 33 34
e 33 36
e 33 37
e 33 39
e 33 44
e 33 45
e 33 46
e 33 48
e 33 49
e 33 50
e 33 51
e 33 52
e 33 55
e 33 56
e 33 61
e 33 63
e 33 65
e 33 69
e 33 71
e 33 72
e 33 74
e 33 87
e 33 89
e 33 97
e 33 98
e 33 99
e 34 35
e 34 39
e 34 41
e 34 42
e 34 43
e 34 45
e 34 46
e 34 47
e 34 48
e 34 50
e 34 51
e 34 53
e 34 54
e 34 57
e 34 59
e 34 61
e 34 62
e 34 64
e 34 65
e 34 70
e 34 71
e 34 72
e 34 73
e 34 80
e 34 89
e 34 91
e 34 95
e 34 96
e 34 97
e 34 100
e 35 36
e 35 37
e 35 40
e 35 43
e 35 47
e 35 48
e 35 49
e 35 53
e 35 56
e 35 59
e 35 60
e 35 61
e 35 62
e 35 69
e 35 71
e 35 72
e 35 95
e 35 96
e 35 97
e 36 38
e 36 40
e 36 41
e 36 42
e 36 43
e 36 44
e 36 46
e 36 47
e 36 49
e 36 50
e 36 51
e 36 52
e 36 54
e 36 55
e 36 56
e 36 57
e 36 61
e 36 66
e 36 69
e 36 70
e 36 72
e 36 73
e 36 74
e 36 81
e 36 89
e 36 90
e 36 95
e 36 98
e 37 38
e 37 40
e 37 41
e 37 43
e 37 45
e 37 49
e 37 51
e 37 52
e 37 54
e 37 56
e 37 57
e 37 58
e 37 59
e 37 60
e 37 63
e 37 65
e 37 66
e 37 67
e 37 68
e 37 70
e 37 71
e 37 72
e 37 73
e 37 74
e 37 78
e 37 83
e 37 90
e 37 92
e 37 93
e 37 94
e 37 95
e 38 39
e 38 42
e 38 43
e 38 44
e 38 45
e 38 46
e 38 47
e 38 51
e 38 54
e 38 55
e 38 56
e 38 58
e 38 60
e 38 62
e 38 63
e 38 64
e 38 65
e 38 66
e 38 67
e 38 69
e 38 71
e 38 72
e 38 73
e 38 74
e 38 89
e 39 40
e 39 41
e 39 42
e 39 43
e 39 46
e 39 47
e 39 48
e 39 49
e 39 50
e 39 51
e 39 54
e 39 56
e 39 58
e 39 59
e 39 61
e 39 62
e 39 65
e 39 66
e 39 68
e 39 69
e 39 71
e 39 72
e 39 74
e 39 87
e 39 91
e 39 93
e 39 95
e 39 98
e 39 100
e 40 41
e 40 42
e 40 43
e 40 44
e 40 45
e 40 47
e 40 48
e 40 50
e 40 51
e 40 54
e 40 55
e 40 57
e 40 59
e 40 60
e 40 62
e 40 63
e 40 64
e 40 65
e 40 66
e 40 67
e 40 68
e 40 70
e 40 73
e 40 74
e 40 79
e 40 81
e 40 88
e 40 89
e 40 96
e 40 97
e 40 98
e 40 99
e 40 100
e 41 43
e 41 44
e 41 45
e 41 47
e 41 48
e 41 49
e 41 50
e 41 51
e 41 52
e 41 55
e 41 56
e 41 57
e 41 59
e 41 60
e 41 61
e 41 62
e 41 63
e 41 65
e 41 67
e 41 69
e 41 72
e 41 85
e 41 87
e 41 95
e 41 96
e 41 97
e 41 99
e 41 100
e 42 44
e 42 47
e 42 49
e 42 51
e 42 52
e 42 54
e 42 55
e 42 56
e 42 58
e 42 60
e 42 61
e 42 62
e 42 63
e 42 64
e 42 65
e 42 68
e 42 69
e 42 72
e 42 73
e 42 74
e 42 86
e 42 93
e 42 94
e 42 97
e 43 46
e 43 47
e 43 50
e 43 52
e 43 54
e 43 56
e 43 58
e 43 63
e 43 65
e 43 66
e 43 68
e 43 70
e 43 72
e 43 73
e 43 87
e 43 89
e 43 91
e 43 92
e 43 94
e 43 99
e 43 100
e 44 46
e 44 47
e 44 49
e 44 50
e 44 52
e 44 55
e 44 56
e 44 62
e 44 63
e 44 64
e 44 66
e 44 67
e 44 68
e 44 72
e 44 73
e 44 88
e 44 89
e 44 94
e 44 97
e 44 98
e 44 100
e 45 47
e 45 50
e 45 52
e 45 53
e 45 55
e 45 57
e 45 58
e 45 60
e 45 61
e 45 62
e 45 65
e 45 66
e 45 69
e 45 71
e 45 72
e 45 73
e 45 74
e 45 87
e 45 91
e 45 93
e 45 95
e 46 47
e 46 48
e 46 49
e 46 50
e 46 51
e 46 52
e 46 53
e 46 54
e 46 55
e 46 56
e 46 57
e 46 58
e 46 59
e 46 60
e 46 61
e 46 64
e 46 67
e 46 68
e 46 69
e 46 71
e 46 72
e 46 73
e 46 88
e 46 92
e 46 95
e 46 97
e 46 98
e 46 100
e 47 50
e 47 51
e 47 53
e 47 57
e 47 58
e 47 59
e 47 60
e 47 64
e 47 65
e 47 66
e 47 69
e 47 72
e 47 73
e 47 74
e 47 94
e 47 97
e 47 99
e 48 49
e 48 50
e 48 51
e 48 53
e 48 55
e 48 56
e 48 58
e 48 59
e 48 62
e 48 63
e 48 64
e 48 65
e 48 67
e 48 68
e 48 69
e 48 70
e 48 74
e 48 89
e 48 90
e 48 99
e 48 100
e 49 54
e 49 55
e 49 56
e 49 57
e 49 59
e 49 60
e 49 61
e 49 63
e 49 64
e 49 65
e 49 67
e 49 68
e 49 70
e 49 71
e 49 72
e 49 73
e 49 88
e 49 89
e 49 95
e 50 53
e 50 54
e 50 56
e 50 57
e 50 58
e 50 59
e 50 60
e 50 61
e 50 62
e 50 63
e 50 64
e 50 65
e 50 66
e 50 67
e 50 68
e 50 70
e 50 76
e 50 88
e 50 89
e 50 90
e 50 95
e 50 96
e 50 98
e 50 99
e 50 100
e 51 52
e 51 53
e 51 54
e 51 56
e 51 58
e 51 59
e 51 61
e 51 62
e 51 64
e 51 65
e 51 66
e 51 69
e 51 70
e 51 73
e 51 74
e 51 90
e 51 95
e 51 99
e 51 100
e 52 53
e 52 54
e 52 55
e 52 56
e 52 59
e 52 62
e 52 63
e 52 64
e 52 66
e 52 68
e 52 71
e 52 82
e 52 91
e 52 92
e 52 97
e 52 98
e 53 55
e 53 56
e 53 58
e 53 59
e 53 61
e 53 62
e 53 63
e 53 64
e 53 66
e 53 71
e 53 73
e 53 74
e 53 77
e 53 87
e 53 88
e 53 90
e 53 91
e 53 93
e 53 97
e 53 98
e 54 55
e 54 57
e 54 58
e 54 59
e 54 60
e 54 62
e 54 63
e 54 65
e 54 66
e 54 68
e 54 70
e 54 72
e 54 73
e 54 79
e 54 87
e 54 88
e 54 96
e 54 100
e 55 56
e 55 57
e 55 58
e 55 61
e 55 62
e 55 64
e 55 66
e 55 71
e 55 72
e 55 73
e 55 74
e 55 86
e 55 87
e 55 90
e 55 92
e 55 94
e 55 98
e 55 100
e 56 57
e 56 58
e 56 62
e 56 64
e 56 65
e 56 66
e 56 68
e 56 69
e 56 71
e 56 72
e 56 73
e 56 87
e 56 89
e 56 91
e 56 93
e 56 99
e 56 100
e 57 58
e 57 59
e 57 64
e 57 68
e 57 70
e 57 74
e 57 87
e 57 89
e 57 90
e 57 93
e 57 96
e 57 97
e 57 100
e 58 62
e 58 63
e 58 65
e 58 66
e 58 67
e 58 68
e 58 69
e 58 70
e 58 73
e 58 74
e 58 87
e 58 88
e 58 92
e 58 95
e 59 60
e 59 61
e 59 62
e 59 63
e 59 64
e 59 67
e 59 69
e 59 91
e 59 95
e 59 100
e 60 61
e 60 63
e 60 64
e 60 65
e 60 67
e 60 68
e 60 69
e 60 71
e 60 73
e 60 87
e 60 90
e 60 92
e 60 93
e 60 94
e 60 95
e 60 98
e 60 99
e 61 62
e 61 63
e 61 65
e 61 67
e 61 73
e 61 74
e 61 88
e 61 92
e 61 93
e 61 95
e 61 98
e 62 63
e 62 66
e 62 67
e 62 68
e 62 70
e 62 73
e 62 74
e 62 87
e 62 95
e 62 100
e 63 66
e 63 70
e 63 71
e 63 74
e 63 85
e 63 87
e 63 91
e 63 92
e 63 98
e 63 100
e 64 66
e 64 67
e 64 68
e 64 70
e 64 88
e 64 95
e 64 98
e 65 66
e 65 67
e 65 68
e 65 69
e 65 70
e 65 71
e 65 74
e 65 87
e 65 90
e 65 91
e 65 94
e 65 97
e 65 100
e 66 68
e 66 71
e 66 73
e 66 87
e 66 89
e 66 92
e 66 95
e 67 68
e 67 69
e 67 70
e 67 71
e 67 72
e 67 74
e 67 88
e 67 91
e 67 95
e 68 70
e 68 71
e 68 72
e 68 73
e 68 74
e 68 75
e 68 87
e 68 88
e 68 91
e 68 93
e 68 95
e 68 97
e 68 98
e 68 100
e 69 70
e 69 71
e 69 73
e 69 75
e 69 95
e 69 97
e 69 99
e 70 71
e 70 72
e 70 73
e 70 74
e 70 87
e 70 89
e 70 93
e 70 94
e 70 97
e 71 72
e 71 87
e 71 90
e 71 91
e 71 92
e 71 93
e 71 97
e 71 98
e 71 100
e 72 73
e 72 86
e 72 87
e 72 89
e 72 90
e 72 96
e 73 74
e 73 83
e 73 87
e 73 91
e 73 96
e 73 97
e 74 87
e 74 90
e 74 92
e 74 93
e 74 97
e 75 77
e 75 79
e 75 81
e 75 82
e 75 84
e 75 88
e 75 89
e 75 91
e 75 100
e 76 78
e 76 79
e 76 80
e 76 81
e 76 83
e 76 84
e 76 85
e 76 86
e 76 87
e 76 88
e 76 90
e 76 94
e 76 97
e 76 98
e 76 99
e 77 78
e 77 79
e 77 82
e 77 84
e 77 85
e 77 86
e 77 90
e 77 92
e 77 93
e 77 96
e 78 79
e 78 82
e 78 84
e 78 86
e 78 88
e 78 89
e 79 81
e 79 82
e 79 83
e 79 84
e 79 85
e 79 87
e 79 90
e 79 97
e 80 82
e 80 83
e 80 85
e 80 86
e 80 90
e 80 91
e 80 93
e 80 98
e 81 83
e 81 84
e 81 85
e 81 87
e 81 94
e 81 95
e 81 97
e 81 99
e 82 83
e 82 87
e 82 92
e 82 100
e 83 84
e 83 85
e 83 86
e 83 88
e 83 90
e 83 91
e 83 92
e 83 93
e 83 94
e 84 85
e 84 87
e 84 90
e 84 91
e 84 97
e 84 98
e 84 99
e 85 86
e 85 87
e 85 89
e 85 90
e 85 93
e 85 99
e 86 87
e 86 96
e 86 99
e 87 89
e 87 90
e 87 92
e 87 93
e 87 97
e 87 100
e 88 89
e 88 91
e 88 92
e 88 94
e 88 95
e 88 96
e 88 98
e 88 100
e 89 90
e 89 91
e 89 92
e 89 95
e 89 97
e 89 98
e 89 99
e 89 100
e 90 91
e 90 93
e 90 94
e 90 98
e 90 99
e 91 93
e 91 95
e 91 96
e 91 100
e 92 93
e 92 94
e 92 96
e 92 98
e 93 94
e 93 95
e 93 96
e 93 97
e 94 96
e 94 97
e 94 99
e 94 100
e 95 96
e 95 99
e 95 100
e 96 97
e 96 98
e 96 99
e 97 99
e 99 100
